p edge 62 927
e 1 2
e 1 3
e 1 5
e 1 6
e 1 7
e 1 8
e 1 10
e 1 11
e 1 14
e 1 15
e 1 16
e 1 17
e 1 22
e 1 24
e 1 25
e 1 27
e 1 29
e 1 34
e 1 35
e 1 36
e 1 42
e 1 43
e 1 46
e 1 47
e 1 48
e 1 49
e 1 50
e 1 51
e 1 52
e 1 53
e 1 55
e 1 57
e 1 59
e 1 60
e 1 62
e 2 3
e 2 4
e 2 6
e 2 7
e 2 10
e 2 11
e 2 14
e 2 17
e 2 18
e 2 19
e 2 21
e 2 22
e 2 24
e 2 25
e 2 26
e 2 31
e 2 32
e 2 33
e 2 34
e 2 35
e 2 37
e 2 38
e 2 40
e 2 43
e 2 44
e 2 48
e 2 51
e 2 52
e 2 55
e 2 56
e 3 4
e 3 5
e 3 6
e 3 10
e 3 14
e 3 16
e 3 19
e 3 25
e 3 27
e 3 30
e 3 31
e 3 32
e 3 33
e 3 34
e 3 35
e 3 36
e 3 39
e 3 40
e 3 43
e 3 45
e 3 46
e 3 50
e 3 52
e 3 54
e 3 56
e 3 57
e 3 58
e 3 59
e 4 5
e 4 6
e 4 7
e 4 9
e 4 10
e 4 11
e 4 13
e 4 15
e 4 17
e 4 18
e 4 22
e 4 23
e 4 24
e 4 25
e 4 29
e 4 32
e 4 36
e 4 38
e 4 40
e 4 41
e 4 42
e 4 47
e 4 53
e 4 56
e 4 57
e 4 59
e 4 61
e 4 62
e 5 6
e 5 9
e 5 10
e 5 11
e 5 15
e 5 16
e 5 17
e 5 18
e 5 19
e 5 20
e 5 22
e 5 23
e 5 24
e 5 25
e 5 27
e 5 29
e 5 32
e 5 33
e 5 39
e 5 40
e 5 41
e 5 42
e 5 43
e 5 44
e 5 45
e 5 47
e 5 48
e 5 49
e 5 51
e 5 53
e 5 54
e 5 55
e 5 57
e 5 59
e 5 60
e 5 61
e 6 13
e 6 16
e 6 17
e 6 21
e 6 22
e 6 24
e 6 25
e 6 26
e 6 27
e 6 28
e 6 29
e 6 31
e 6 32
e 6 33
e 6 35
e 6 36
e 6 38
e 6 39
e 6 41
e 6 46
e 6 49
e 6 53
e 6 54
e 6 57
e 6 59
e 6 60
e 7 8
e 7 9
e 7 10
e 7 11
e 7 13
e 7 18
e 7 19
e 7 22
e 7 26
e 7 27
e 7 29
e 7 34
e 7 36
e 7 37
e 7 39
e 7 40
e 7 41
e 7 42
e 7 49
e 7 50
e 7 52
e 7 53
e 7 54
e 7 55
e 7 56
e 7 59
e 7 61
e 8 10
e 8 11
e 8 12
e 8 16
e 8 20
e 8 21
e 8 24
e 8 26
e 8 30
e 8 31
e 8 34
e 8 36
e 8 39
e 8 41
e 8 42
e 8 44
e 8 46
e 8 47
e 8 48
e 8 49
e 8 50
e 8 51
e 8 52
e 8 55
e 8 56
e 8 58
e 8 61
e 8 62
e 9 10
e 9 12
e 9 16
e 9 17
e 9 21
e 9 24
e 9 28
e 9 29
e 9 32
e 9 36
e 9 42
e 9 44
e 9 46
e 9 48
e 9 49
e 9 50
e 9 53
e 9 58
e 10 11
e 10 12
e 10 14
e 10 19
e 10 24
e 10 25
e 10 26
e 10 28
e 10 30
e 10 32
e 10 33
e 10 35
e 10 37
e 10 39
e 10 40
e 10 41
e 10 43
e 10 46
e 10 47
e 10 50
e 10 51
e 10 52
e 10 53
e 10 56
e 10 59
e 11 12
e 11 13
e 11 14
e 11 15
e 11 16
e 11 17
e 11 21
e 11 22
e 11 23
e 11 27
e 11 28
e 11 29
e 11 30
e 11 32
e 11 35
e 11 38
e 11 39
e 11 42
e 11 43
e 11 45
e 11 46
e 11 53
e 11 55
e 11 56
e 11 58
e 11 59
e 11 62
e 12 13
e 12 14
e 12 15
e 12 16
e 12 17
e 12 22
e 12 23
e 12 25
e 12 31
e 12 33
e 12 35
e 12 36
e 12 38
e 12 39
e 12 40
e 12 42
e 12 44
e 12 45
e 12 48
e 12 49
e 12 52
e 12 54
e 12 56
e 12 57
e 12 58
e 12 59
e 12 61
e 13 14
e 13 16
e 13 18
e 13 19
e 13 20
e 13 22
e 13 23
e 13 24
e 13 25
e 13 26
e 13 30
e 13 33
e 13 35
e 13 37
e 13 38
e 13 39
e 13 42
e 13 43
e 13 47
e 13 49
e 13 51
e 13 52
e 13 54
e 13 55
e 13 57
e 13 58
e 13 61
e 13 62
e 14 15
e 14 16
e 14 17
e 14 18
e 14 20
e 14 22
e 14 29
e 14 30
e 14 33
e 14 35
e 14 40
e 14 42
e 14 46
e 14 48
e 14 52
e 14 55
e 14 58
e 14 60
e 14 62
e 15 16
e 15 18
e 15 20
e 15 21
e 15 23
e 15 24
e 15 26
e 15 30
e 15 32
e 15 34
e 15 37
e 15 38
e 15 39
e 15 42
e 15 47
e 15 48
e 15 50
e 15 52
e 15 53
e 15 56
e 15 57
e 15 58
e 15 59
e 15 60
e 16 17
e 16 19
e 16 20
e 16 22
e 16 25
e 16 26
e 16 29
e 16 34
e 16 36
e 16 37
e 16 38
e 16 39
e 16 40
e 16 41
e 16 42
e 16 43
e 16 45
e 16 48
e 16 50
e 16 51
e 16 53
e 16 54
e 16 59
e 16 62
e 17 20
e 17 22
e 17 24
e 17 25
e 17 26
e 17 30
e 17 31
e 17 32
e 17 33
e 17 35
e 17 38
e 17 39
e 17 40
e 17 47
e 17 49
e 17 52
e 17 53
e 17 54
e 17 56
e 17 60
e 17 61
e 18 19
e 18 20
e 18 21
e 18 24
e 18 28
e 18 31
e 18 34
e 18 36
e 18 37
e 18 38
e 18 40
e 18 43
e 18 45
e 18 47
e 18 49
e 18 53
e 18 54
e 18 57
e 18 58
e 18 60
e 19 20
e 19 22
e 19 25
e 19 26
e 19 28
e 19 29
e 19 32
e 19 35
e 19 36
e 19 40
e 19 41
e 19 44
e 19 46
e 19 47
e 19 48
e 19 49
e 19 51
e 19 53
e 19 54
e 19 56
e 19 59
e 19 62
e 20 21
e 20 23
e 20 27
e 20 29
e 20 30
e 20 34
e 20 35
e 20 37
e 20 38
e 20 39
e 20 40
e 20 41
e 20 42
e 20 46
e 20 48
e 20 50
e 20 52
e 20 55
e 20 59
e 20 61
e 21 22
e 21 23
e 21 25
e 21 26
e 21 28
e 21 30
e 21 34
e 21 35
e 21 36
e 21 37
e 21 39
e 21 46
e 21 48
e 21 51
e 21 52
e 21 56
e 21 57
e 21 59
e 21 60
e 22 25
e 22 26
e 22 27
e 22 28
e 22 30
e 22 31
e 22 34
e 22 36
e 22 38
e 22 39
e 22 42
e 22 44
e 22 45
e 22 47
e 22 48
e 22 50
e 22 51
e 22 58
e 23 24
e 23 25
e 23 31
e 23 34
e 23 35
e 23 38
e 23 39
e 23 46
e 23 48
e 23 49
e 23 51
e 23 53
e 23 54
e 23 56
e 23 57
e 23 58
e 23 59
e 23 60
e 23 61
e 23 62
e 24 25
e 24 29
e 24 33
e 24 34
e 24 35
e 24 37
e 24 39
e 24 45
e 24 46
e 24 47
e 24 49
e 24 50
e 24 52
e 24 53
e 24 56
e 24 58
e 24 59
e 24 60
e 25 27
e 25 28
e 25 30
e 25 33
e 25 35
e 25 37
e 25 39
e 25 41
e 25 42
e 25 44
e 25 45
e 25 48
e 25 51
e 25 52
e 25 56
e 25 60
e 26 27
e 26 30
e 26 31
e 26 33
e 26 34
e 26 35
e 26 41
e 26 42
e 26 45
e 26 46
e 26 49
e 26 52
e 26 53
e 26 56
e 26 62
e 27 28
e 27 29
e 27 31
e 27 32
e 27 34
e 27 36
e 27 37
e 27 40
e 27 41
e 27 42
e 27 43
e 27 49
e 27 50
e 27 52
e 27 56
e 27 57
e 27 58
e 27 59
e 27 60
e 27 62
e 28 29
e 28 32
e 28 34
e 28 35
e 28 37
e 28 38
e 28 39
e 28 41
e 28 45
e 28 47
e 28 49
e 28 50
e 28 51
e 28 52
e 28 53
e 28 60
e 28 62
e 29 31
e 29 38
e 29 41
e 29 45
e 29 48
e 29 49
e 29 52
e 29 53
e 29 55
e 29 58
e 29 60
e 29 62
e 30 31
e 30 32
e 30 33
e 30 34
e 30 35
e 30 36
e 30 37
e 30 39
e 30 43
e 30 46
e 30 50
e 30 54
e 30 55
e 30 56
e 30 59
e 30 60
e 30 61
e 31 32
e 31 33
e 31 35
e 31 37
e 31 40
e 31 41
e 31 43
e 31 44
e 31 46
e 31 49
e 31 50
e 31 51
e 31 54
e 31 56
e 31 59
e 31 60
e 32 33
e 32 34
e 32 36
e 32 37
e 32 39
e 32 40
e 32 42
e 32 44
e 32 49
e 32 50
e 32 54
e 32 58
e 32 62
e 33 36
e 33 39
e 33 42
e 33 46
e 33 49
e 33 53
e 33 56
e 33 58
e 33 59
e 33 60
e 33 61
e 34 36
e 34 39
e 34 41
e 34 42
e 34 45
e 34 49
e 34 50
e 34 51
e 34 52
e 34 54
e 34 56
e 34 57
e 34 58
e 34 60
e 34 62
e 35 36
e 35 40
e 35 41
e 35 44
e 35 46
e 35 47
e 35 48
e 35 49
e 35 56
e 35 58
e 35 61
e 35 62
e 36 39
e 36 42
e 36 45
e 36 49
e 36 52
e 36 53
e 36 56
e 36 57
e 36 58
e 36 59
e 36 62
e 37 39
e 37 41
e 37 42
e 37 45
e 37 46
e 37 50
e 37 52
e 37 56
e 37 57
e 37 58
e 38 39
e 38 44
e 38 51
e 38 52
e 38 53
e 38 54
e 38 55
e 38 57
e 38 61
e 39 41
e 39 44
e 39 47
e 39 48
e 39 49
e 39 51
e 39 53
e 39 57
e 39 58
e 39 59
e 39 61
e 39 62
e 40 43
e 40 44
e 40 45
e 40 47
e 40 49
e 40 50
e 40 52
e 40 58
e 40 59
e 40 62
e 41 44
e 41 46
e 41 50
e 41 52
e 41 53
e 41 54
e 41 55
e 41 56
e 41 57
e 41 59
e 42 46
e 42 47
e 42 50
e 42 51
e 42 52
e 42 53
e 42 54
e 42 55
e 42 57
e 42 58
e 42 61
e 42 62
e 43 44
e 43 45
e 43 47
e 43 48
e 43 49
e 43 50
e 43 51
e 43 52
e 43 54
e 43 56
e 43 57
e 43 60
e 43 62
e 44 45
e 44 46
e 44 48
e 44 49
e 44 50
e 44 51
e 44 52
e 44 54
e 44 55
e 44 57
e 44 58
e 44 60
e 45 48
e 45 49
e 45 51
e 45 56
e 45 57
e 45 58
e 45 59
e 45 60
e 45 62
e 46 50
e 46 52
e 46 53
e 46 56
e 46 57
e 46 60
e 46 61
e 47 48
e 47 51
e 47 53
e 47 54
e 47 55
e 47 58
e 47 59
e 48 49
e 48 50
e 48 53
e 48 55
e 48 58
e 48 59
e 48 62
e 49 53
e 49 54
e 49 57
e 49 58
e 49 59
e 49 60
e 49 61
e 49 62
e 50 51
e 50 53
e 50 55
e 50 56
e 50 58
e 50 59
e 50 62
e 51 52
e 51 53
e 51 55
e 51 56
e 51 62
e 52 56
e 52 57
e 52 58
e 52 59
e 52 60
e 52 62
e 53 54
e 53 55
e 54 55
e 54 59
e 54 61
e 55 58
e 55 59
e 55 61
e 55 62
e 56 58
e 56 59
e 57 58
e 57 60
e 57 62
e 58 59
e 58 61
e 59 60
e 59 62
e 60 62
e 61 62
